qbf_easy_train/easy_5761_SAT.qdimacs
p cnf 27 66
a 8 19 20 0
e 1 2 3 4 5 6 7 9 10 11 12 13 14 15 16 17 18 21 22 23 24 25 26 27 0
3 -1 0
3 2 0
1 -2 -3 0
-6 4 0
-6 -5 0
-4 5 6 0
7 3 0
7 -6 0
-3 6 -7 0
-9 -8 0
-9 1 0
8 -1 9 0
-10 9 0
-10 -3 0
-9 3 10 0
11 8 0
11 -10 0
-8 10 -11 0
-12 -5 0
-12 11 0
5 -11 12 0
-13 7 0
-13 12 0
-7 -12 13 0
15 5 0
15 14 0
-5 -14 -15 0
13 15 -16 0
-13 -15 -16 0
13 -15 16 0
-13 15 16 0
18 6 0
18 -5 0
-6 5 -18 0
19 -17 0
19 -18 0
17 18 -19 0
21 -2 0
21 14 0
2 -14 -21 0
-22 14 0
-22 -21 0
-14 21 22 0
23 20 0
23 -22 0
-20 22 -23 0
-24 -19 0
-24 -23 0
19 23 24 0
2 -20 -25 0
-2 20 -25 0
2 20 25 0
-2 -20 25 0
26 24 0
26 25 0
-24 -25 -26 0
27 -16 0
27 -26 0
16 26 -27 0
17 -19 1 26 4 25 24 -18 0
-25 1 5 17 -2 0
-10 -20 -9 0
23 20 21 0
-9 26 27 -23 -18 -14 -11 -16 0
7 2 -6 19 12 0
27 0
