sat_easy_train/easy_5761_SAT.dimacs
p cnf 135 451
-1 -2 -3 0
1 2 -3 0
-1 2 3 0
1 -2 3 0
-6 4 0
-6 -5 0
-4 5 6 0
8 -6 0
8 -6 0
6 -8 0
-9 -7 0
-9 8 0
7 -8 9 0
9 10 -11 0
-9 -10 -11 0
9 -10 11 0
-9 10 11 0
13 1 0
13 12 0
-1 -12 -13 0
-16 -15 0
-16 2 0
15 -2 16 0
-16 15 -17 0
16 -15 -17 0
-16 -15 17 0
16 15 17 0
-17 1 -18 0
17 -1 -18 0
-17 -1 18 0
17 1 18 0
-19 14 0
-19 18 0
-14 -18 19 0
-20 5 0
-20 19 0
-5 -19 20 0
-21 13 0
-21 20 0
-13 -20 21 0
-22 -11 0
-22 21 0
11 -21 22 0
-6 22 -23 0
6 -22 -23 0
-6 -22 23 0
6 22 23 0
-24 -25 -26 0
24 25 -26 0
-24 25 26 0
24 -25 26 0
26 5 -27 0
-26 -5 -27 0
26 -5 27 0
-26 5 27 0
28 -1 -29 0
-28 1 -29 0
28 1 29 0
-28 -1 29 0
27 -29 -30 0
-27 29 -30 0
27 29 30 0
-27 -29 30 0
-24 13 -31 0
24 -13 -31 0
-24 -13 31 0
24 13 31 0
-32 13 0
-32 -15 0
-13 15 32 0
33 31 0
33 -32 0
-31 32 -33 0
-34 -30 0
-34 -33 0
30 33 34 0
35 -23 0
35 -34 0
23 34 -35 0
-36 4 0
-36 -4 0
-37 10 0
-37 12 0
-10 -12 37 0
38 36 0
38 -37 0
-36 37 -38 0
-36 -38 -39 0
36 38 -39 0
-36 38 39 0
36 -38 39 0
40 -35 0
40 39 0
35 -39 -40 0
41 -15 0
41 18 0
15 -18 -41 0
-42 -2 0
-42 -14 0
2 14 42 0
-43 -16 0
-43 42 0
16 -42 43 0
-44 -21 0
-44 -43 0
21 43 44 0
-25 -1 -46 0
25 1 -46 0
-25 1 46 0
25 -1 46 0
1 -46 -47 0
-1 46 -47 0
1 46 47 0
-1 -46 47 0
48 45 0
48 47 0
-45 -47 -48 0
-44 -48 -49 0
44 48 -49 0
-44 48 49 0
44 -48 49 0
50 41 0
50 49 0
-41 -49 -50 0
52 36 0
52 9 0
-36 -9 -52 0
53 -51 0
53 52 0
51 -52 -53 0
-54 -50 0
-54 53 0
50 -53 54 0
-55 -40 0
-55 -54 0
40 54 55 0
-56 -3 0
-56 -55 0
3 55 56 0
-57 6 0
-57 -25 0
-6 25 57 0
-58 25 0
-58 -16 0
-25 16 58 0
-37 59 -60 0
37 -59 -60 0
-37 -59 60 0
37 59 60 0
61 13 0
61 -60 0
-13 60 -61 0
58 -61 -62 0
-58 61 -62 0
58 61 62 0
-58 -61 62 0
63 -24 0
63 -16 0
24 16 -63 0
64 63 0
64 -2 0
-63 2 -64 0
17 -4 -65 0
-17 4 -65 0
17 4 65 0
-17 -4 65 0
66 64 0
66 -65 0
-64 65 -66 0
-67 -62 0
-67 66 0
62 -66 67 0
32 -68 -69 0
-32 68 -69 0
32 68 69 0
-32 -68 69 0
70 -67 0
70 -69 0
67 69 -70 0
71 57 0
71 70 0
-57 -70 -71 0
72 -13 0
72 5 0
13 -5 -72 0
73 -22 0
73 72 0
22 -72 -73 0
74 36 0
74 20 0
-36 -20 -74 0
-75 -32 0
-75 74 0
32 -74 75 0
76 -73 0
76 75 0
73 -75 -76 0
-77 10 0
-77 60 0
-10 -60 77 0
78 64 0
78 46 0
-64 -46 -78 0
77 78 -79 0
-77 -78 -79 0
77 -78 79 0
-77 78 79 0
-80 -21 0
-80 7 0
21 -7 80 0
81 -80 0
81 15 0
80 -15 -81 0
-82 80 0
-82 -81 0
-80 81 82 0
-83 -79 0
-83 82 0
79 -82 83 0
-84 76 0
-84 -83 0
-76 83 84 0
85 71 0
85 -84 0
-71 84 -85 0
-86 -47 0
-86 24 0
47 -24 86 0
87 63 0
87 5 0
-63 -5 -87 0
-64 7 -88 0
64 -7 -88 0
-64 -7 88 0
64 7 88 0
89 16 0
89 88 0
-16 -88 -89 0
90 -87 0
90 89 0
87 -89 -90 0
-91 -86 0
-91 90 0
86 -90 91 0
92 -26 0
92 -42 0
26 42 -92 0
93 63 0
93 -52 0
-63 52 -93 0
92 93 -94 0
-92 -93 -94 0
92 -93 94 0
-92 93 94 0
-95 68 0
-95 -80 0
-68 80 95 0
96 94 0
96 -95 0
-94 95 -96 0
97 -91 0
97 96 0
91 -96 -97 0
-85 -97 -98 0
85 97 -98 0
-85 97 98 0
85 -97 98 0
99 -11 0
99 2 0
11 -2 -99 0
100 5 0
100 63 0
-5 -63 -100 0
-101 99 0
-101 -100 0
-99 100 101 0
102 43 0
102 60 0
-43 -60 -102 0
101 102 -103 0
-101 -102 -103 0
101 -102 103 0
-101 102 103 0
-24 -1 -104 0
24 1 -104 0
-24 1 104 0
24 -1 104 0
-104 26 -105 0
104 -26 -105 0
-104 -26 105 0
104 26 105 0
106 -22 0
106 -29 0
22 29 -106 0
107 -105 0
107 106 0
105 -106 -107 0
37 -18 -108 0
-37 18 -108 0
37 18 108 0
-37 -18 108 0
-109 -107 0
-109 108 0
107 -108 109 0
110 44 0
110 43 0
-44 -43 -110 0
-111 109 0
-111 -110 0
-109 110 111 0
-112 12 0
-112 -104 0
-12 104 112 0
-2 10 -113 0
2 -10 -113 0
-2 -10 113 0
2 10 113 0
114 42 0
114 60 0
-42 -60 -114 0
-115 113 0
-115 -114 0
-113 114 115 0
-116 -112 0
-116 115 0
112 -115 116 0
-111 116 -117 0
111 -116 -117 0
-111 -116 117 0
111 116 117 0
-118 103 0
-118 117 0
-103 -117 118 0
-65 2 -119 0
65 -2 -119 0
-65 -2 119 0
65 2 119 0
-120 -44 0
-120 -43 0
44 43 120 0
119 120 -121 0
-119 -120 -121 0
119 -120 121 0
-119 120 121 0
-121 27 -122 0
121 -27 -122 0
-121 -27 122 0
121 27 122 0
-123 1 0
-123 -87 0
-1 87 123 0
124 6 0
124 -26 0
-6 26 -124 0
123 -124 -125 0
-123 124 -125 0
123 124 125 0
-123 -124 125 0
-4 10 -126 0
4 -10 -126 0
-4 -10 126 0
4 10 126 0
127 -64 0
127 27 0
64 -27 -127 0
-17 -46 -128 0
17 46 -128 0
-17 46 128 0
17 -46 128 0
-129 127 0
-129 128 0
-127 -128 129 0
130 -126 0
130 129 0
126 -129 -130 0
131 -125 0
131 -130 0
125 130 -131 0
-132 -122 0
-132 131 0
122 -131 132 0
-133 -118 0
-133 132 0
118 -132 133 0
-98 -133 -134 0
98 133 -134 0
-98 133 134 0
98 -133 134 0
135 -56 0
135 -134 0
56 134 -135 0
-24 -69 124 -16 -112 0
-45 16 0
-113 -22 -49 114 85 68 0
-10 125 62 90 113 0
93 76 30 -7 86 0
21 129 -122 108 0
-41 11 62 115 0
66 -94 123 0
-97 36 -85 118 0
-17 -59 -47 0
63 -106 -88 0
46 114 0
107 -88 -45 -32 -71 0
-57 8 14 -114 49 39 0
-41 13 55 -51 61 44 0
-36 -133 -70 -26 -86 0
-13 -62 45 -114 0
-129 -63 121 0
-49 7 126 0
112 40 131 90 -29 -130 0
-49 66 0
-90 105 -41 -61 -122 135 0
-19 102 -51 55 112 -47 0
-116 -44 19 26 -79 -119 0
-115 28 -67 55 -91 -38 0
-54 103 -108 120 0
-94 -30 -39 -36 0
-124 -46 -36 -88 0
60 46 -126 27 85 -105 0
-93 45 -107 0
-98 118 45 104 0
-99 87 -18 -20 95 0
112 83 -22 92 -101 56 0
122 1 -37 -80 9 0
-107 -23 134 -57 -15 0
102 -58 -77 0
-6 35 -89 0
25 29 -16 0
-129 -87 0
14 -20 119 86 30 -80 0
47 -38 0
-116 -14 0
-3 57 5 0
-126 49 12 0
79 -64 -18 -65 -98 0
5 118 3 0
20 -9 -49 115 -98 0
-37 20 -21 5 -97 34 0
133 -17 0
110 -11 47 0
-130 56 0
-11 123 71 0
56 -20 122 -2 -129 133 0
76 -20 -25 15 -14 35 0
91 116 -63 0
21 -34 -66 -12 -26 -52 0
-83 99 0
67 -127 7 -70 -34 -131 0
41 38 -68 4 0
135 0
